Optimal - objective value -133.80000000
     36 squad[32]                                  1                       0
     64 squad[638]                                 1                       0
     69 squad[711]                                 1                       0
     97 squad[571]                                 1                       0
    102 squad[649]                                 1                       0
    110 squad[722]                                 1                       0
    143 squad[580]                                 1                       0
    153 squad[104]                                 1                       0
    157 squad[109]                                 1                       0
    161 squad[116]                                 1                       0
    224 squad[699]                                 1                       0
    301 squad[678]                                 1                       0
    350 squad[255]                                 1                       0
    562 squad[380]                                 1                       0
    695 squad[472]                                 1                       0
    863 lineup[80]                                 1                   -13.1
    871 lineup[88]                                 1                    -9.9
    902 lineup[107]                                1                     -10
    903 lineup[108]                                1                    -9.4
    904 lineup[109]                                1                   -11.4
    908 lineup[116]                                1                   -11.4
    916 lineup[124]                                1                   -11.4
    924 lineup[586]                                1                     -14
   1174 lineup[283]                                1                   -10.8
   1176 lineup[285]                                1                    -8.4
   1375 lineup[422]                                1                    -8.6
   1671 captain[586]                               1                     -14
   2418 vicecap[586]                               1                    -1.4
